
Version,
  25.2;                                   !- Version Identifier

Zone,
  Thermal Zone 1,                         !- Name
  ,                                       !- Direction of Relative North {deg}
  0,                                      !- X Origin {m}
  0,                                      !- Y Origin {m}
  0,                                      !- Z Origin {m}
  ,                                       !- Type
  1,                                      !- Multiplier
  ,                                       !- Ceiling Height {m}
  ,                                       !- Volume {m3}
  ,                                       !- Floor Area {m2}
  ,                                       !- Zone Inside Convection Algorithm
  ,                                       !- Zone Outside Convection Algorithm
  Yes;                                    !- Part of Total Floor Area

ZoneHVAC:EquipmentConnections,
  Thermal Zone 1,                         !- Zone Name
  Thermal Zone 1 Equipment List,          !- Zone Conditioning Equipment List Name
  Thermal Zone 1 Inlet Node List,         !- Zone Air Inlet Node or NodeList Name
  ,                                       !- Zone Air Exhaust Node or NodeList Name
  Node 1,                                 !- Zone Air Node Name
  Thermal Zone 1 Return Node List;        !- Zone Return Air Node or NodeList Name

NodeList,
  Thermal Zone 1 Inlet Node List,         !- Name
  Node 6;                                 !- Node Name 1

NodeList,
  Thermal Zone 1 Return Node List,        !- Name
  Node 9;                                 !- Node Name 1

AirTerminal:SingleDuct:ConstantVolume:NoReheat,
  Air Terminal Single Duct Constant Volume No Reheat 1, !- Name
  Always On Discrete,                     !- Availability Schedule Name
  Node 10,                                !- Air Inlet Node Name
  Node 6,                                 !- Air Outlet Node Name
  AutoSize;                               !- Maximum Air Flow Rate {m3/s}

ZoneHVAC:AirDistributionUnit,
  ADU Air Terminal Single Duct Constant Volume No Reheat 1, !- Name
  Node 6,                                 !- Air Distribution Unit Outlet Node Name
  AirTerminal:SingleDuct:ConstantVolume:NoReheat, !- Air Terminal Object Type
  Air Terminal Single Duct Constant Volume No Reheat 1; !- Air Terminal Name

ZoneHVAC:EquipmentList,
  Thermal Zone 1 Equipment List,          !- Name
  SequentialLoad,                         !- Load Distribution Scheme
  ZoneHVAC:AirDistributionUnit,           !- Zone Equipment Object Type 1
  ADU Air Terminal Single Duct Constant Volume No Reheat 1, !- Zone Equipment Name 1
  1,                                      !- Zone Equipment Cooling Sequence 1
  1,                                      !- Zone Equipment Heating or No-Load Sequence 1
  ,                                       !- Zone Equipment Sequential Cooling Fraction Schedule Name 1
  ;                                       !- Zone Equipment Sequential Heating Fraction Schedule Name 1

Schedule:Constant,
  Always On Discrete,                     !- Name
  OnOff,                                  !- Schedule Type Limits Name
  1;                                      !- Hourly Value

Schedule:Constant,
  Always Off Discrete,                    !- Name
  OnOff 1,                                !- Schedule Type Limits Name
  0;                                      !- Hourly Value

Schedule:Constant,
  Always On Continuous,                   !- Name
  Fractional,                             !- Schedule Type Limits Name
  1;                                      !- Hourly Value

ScheduleTypeLimits,
  Fractional,                             !- Name
  0,                                      !- Lower Limit Value {BasedOnField A3}
  1,                                      !- Upper Limit Value {BasedOnField A3}
  Continuous;                             !- Numeric Type

ScheduleTypeLimits,
  OnOff,                                  !- Name
  0,                                      !- Lower Limit Value {BasedOnField A3}
  1,                                      !- Upper Limit Value {BasedOnField A3}
  Discrete,                               !- Numeric Type
  availability;                           !- Unit Type

ScheduleTypeLimits,
  OnOff 1,                                !- Name
  0,                                      !- Lower Limit Value {BasedOnField A3}
  1,                                      !- Upper Limit Value {BasedOnField A3}
  Discrete,                               !- Numeric Type
  availability;                           !- Unit Type

OutdoorAir:Node,
  Model Outdoor Air Node;                 !- Name

AirLoopHVAC,
  Air Loop HVAC 1,                        !- Name
  ,                                       !- Controller List Name
  ,                                       !- Availability Manager List Name
  AutoSize,                               !- Design Supply Air Flow Rate {m3/s}
  Air Loop HVAC 1 Supply Branches,        !- Branch List Name
  ,                                       !- Connector List Name
  Node 2,                                 !- Supply Side Inlet Node Name
  Node 5,                                 !- Demand Side Outlet Node Name
  Air Loop HVAC 1 Demand Inlet Nodes,     !- Demand Side Inlet Node Names
  Air Loop HVAC 1 Supply Outlet Nodes,    !- Supply Side Outlet Node Names
  1;                                      !- Design Return Air Flow Fraction of Supply Air Flow

NodeList,
  Air Loop HVAC 1 Supply Outlet Nodes,    !- Name
  Node 3;                                 !- Node Name 1

NodeList,
  Air Loop HVAC 1 Demand Inlet Nodes,     !- Name
  Node 4;                                 !- Node Name 1

BranchList,
  Air Loop HVAC 1 Supply Branches,        !- Name
  Air Loop HVAC 1 Main Branch;            !- Branch Name 1

Branch,
  Air Loop HVAC 1 Main Branch,            !- Name
  ,                                       !- Pressure Drop Curve Name
  Coil:Heating:Electric,                  !- Component Object Type 1
  Coil Heating Electric 1,                !- Component Name 1
  Node 2,                                 !- Component Inlet Node Name 1
  Node 8,                                 !- Component Outlet Node Name 1
  CoilSystem:Cooling:DX,                  !- Component Object Type 2
  ,                                       !- Component Name 2
  Node 8,                                 !- Component Inlet Node Name 2
  Node 7,                                 !- Component Outlet Node Name 2
  Fan:ConstantVolume,                     !- Component Object Type 3
  Fan Constant Volume 1,                  !- Component Name 3
  Node 7,                                 !- Component Inlet Node Name 3
  Node 3;                                 !- Component Outlet Node Name 3

Coil:Heating:Electric,
  Coil Heating Electric 1,                !- Name
  Always On Discrete,                     !- Availability Schedule Name
  1,                                      !- Efficiency
  Autosize,                               !- Nominal Capacity {W}
  Node 2,                                 !- Air Inlet Node Name
  Node 8,                                 !- Air Outlet Node Name
  Node 8;                                 !- Temperature Setpoint Node Name

Curve:Biquadratic,
  Curve Biquadratic 1,                    !- Name
  0.942587793,                            !- Coefficient1 Constant
  0.009543347,                            !- Coefficient2 x
  0.00068377,                             !- Coefficient3 x**2
  -0.011042676,                           !- Coefficient4 y
  5.249e-06,                              !- Coefficient5 y**2
  -9.72e-06,                              !- Coefficient6 x*y
  17,                                     !- Minimum Value of x {BasedOnField A2}
  22,                                     !- Maximum Value of x {BasedOnField A2}
  13,                                     !- Minimum Value of y {BasedOnField A3}
  46;                                     !- Maximum Value of y {BasedOnField A3}

Curve:Quadratic,
  Curve Quadratic 1,                      !- Name
  0.8,                                    !- Coefficient1 Constant
  0.2,                                    !- Coefficient2 x
  0,                                      !- Coefficient3 x**2
  0.5,                                    !- Minimum Value of x {BasedOnField A2}
  1.5;                                    !- Maximum Value of x {BasedOnField A2}

Curve:Biquadratic,
  Curve Biquadratic 2,                    !- Name
  0.342414409,                            !- Coefficient1 Constant
  0.034885008,                            !- Coefficient2 x
  -0.0006237,                             !- Coefficient3 x**2
  0.004977216,                            !- Coefficient4 y
  0.000437951,                            !- Coefficient5 y**2
  -0.000728028,                           !- Coefficient6 x*y
  17,                                     !- Minimum Value of x {BasedOnField A2}
  22,                                     !- Maximum Value of x {BasedOnField A2}
  13,                                     !- Minimum Value of y {BasedOnField A3}
  46;                                     !- Maximum Value of y {BasedOnField A3}

Curve:Quadratic,
  Curve Quadratic 2,                      !- Name
  1.1552,                                 !- Coefficient1 Constant
  -0.1808,                                !- Coefficient2 x
  0.0256,                                 !- Coefficient3 x**2
  0.5,                                    !- Minimum Value of x {BasedOnField A2}
  1.5;                                    !- Maximum Value of x {BasedOnField A2}

Curve:Quadratic,
  Curve Quadratic 3,                      !- Name
  0.85,                                   !- Coefficient1 Constant
  0.15,                                   !- Coefficient2 x
  0,                                      !- Coefficient3 x**2
  0,                                      !- Minimum Value of x {BasedOnField A2}
  1;                                      !- Maximum Value of x {BasedOnField A2}

Coil:Cooling:DX:SingleSpeed,
  Coil Cooling DX Single Speed 1,         !- Name
  Always On Discrete,                     !- Availability Schedule Name
  Autosize,                               !- Gross Rated Total Cooling Capacity {W}
  Autosize,                               !- Gross Rated Sensible Heat Ratio
  3,                                      !- Gross Rated Cooling COP {W/W}
  Autosize,                               !- Rated Air Flow Rate {m3/s}
  773.3,                                  !- Rated Evaporator Fan Power Per Volume Flow Rate 2017 {W/(m3/s)}
  934.4,                                  !- Rated Evaporator Fan Power Per Volume Flow Rate 2023 {W/(m3/s)}
  Node 8,                                 !- Air Inlet Node Name
  Node 7,                                 !- Air Outlet Node Name
  Curve Biquadratic 1,                    !- Total Cooling Capacity Function of Temperature Curve Name
  Curve Quadratic 1,                      !- Total Cooling Capacity Function of Flow Fraction Curve Name
  Curve Biquadratic 2,                    !- Energy Input Ratio Function of Temperature Curve Name
  Curve Quadratic 2,                      !- Energy Input Ratio Function of Flow Fraction Curve Name
  Curve Quadratic 3,                      !- Part Load Fraction Correlation Curve Name
  -25,                                    !- Minimum Outdoor Dry-Bulb Temperature for Compressor Operation {C}
  0,                                      !- Nominal Time for Condensate Removal to Begin {s}
  0,                                      !- Ratio of Initial Moisture Evaporation Rate and Steady State Latent Capacity {dimensionless}
  0,                                      !- Maximum Cycling Rate {cycles/hr}
  0,                                      !- Latent Capacity Time Constant {s}
  ,                                       !- Condenser Air Inlet Node Name
  AirCooled,                              !- Condenser Type
  0.9,                                    !- Evaporative Condenser Effectiveness {dimensionless}
  Autosize,                               !- Evaporative Condenser Air Flow Rate {m3/s}
  Autosize,                               !- Evaporative Condenser Pump Rated Power Consumption {W}
  0,                                      !- Crankcase Heater Capacity {W}
  ,                                       !- Crankcase Heater Capacity Function of Temperature Curve Name
  10,                                     !- Maximum Outdoor Dry-Bulb Temperature for Crankcase Heater Operation {C}
  ,                                       !- Supply Water Storage Tank Name
  ,                                       !- Condensate Collection Water Storage Tank Name
  0,                                      !- Basin Heater Capacity {W/K}
  2;                                      !- Basin Heater Setpoint Temperature {C}

Fan:ConstantVolume,
  Fan Constant Volume 1,                  !- Name
  Always On Discrete,                     !- Availability Schedule Name
  0.7,                                    !- Fan Total Efficiency
  250,                                    !- Pressure Rise {Pa}
  AutoSize,                               !- Maximum Flow Rate {m3/s}
  0.9,                                    !- Motor Efficiency
  1,                                      !- Motor In Airstream Fraction
  Node 7,                                 !- Air Inlet Node Name
  Node 3,                                 !- Air Outlet Node Name
  ;                                       !- End-Use Subcategory

AirLoopHVAC:SupplyPath,
  Air Loop HVAC 1 Node 4 Supply Path,     !- Name
  Node 4,                                 !- Supply Air Path Inlet Node Name
  AirLoopHVAC:ZoneSplitter,               !- Component Object Type 1
  Air Loop HVAC Zone Splitter 1;          !- Component Name 1

AirLoopHVAC:ZoneSplitter,
  Air Loop HVAC Zone Splitter 1,          !- Name
  Node 4,                                 !- Inlet Node Name
  Node 10;                                !- Outlet Node Name 1

AirLoopHVAC:ZoneMixer,
  Air Loop HVAC Zone Mixer 1,             !- Name
  Node 5,                                 !- Outlet Node Name
  Node 9;                                 !- Inlet Node Name 1

